c description: Pigeonhole principle formula for 4 pigeons and 1 holes
c generator: CNFgen (0.9.1)
c copyright: (C) 2012-2022 Massimo Lauria <massimo.lauria@uniroma1.it>
c url: https://massimolauria.net/cnfgen
c command line: cnfgen php 4 1
c
p cnf 4 10
1 0
2 0
3 0
4 0
-1 -2 0
-1 -3 0
-1 -4 0
-2 -3 0
-2 -4 0
-3 -4 0
